data/CVRPLIB/Vrp-Set-XML100/instances/XML100_1312_11.vrp
NAME : XML100_1312_11
COMMENT : Generated by Queiroga, Sadykov, Uchoa, and Vidal (2021)
TYPE : CVRP
DIMENSION : 101
EDGE_WEIGHT_TYPE : EUC_2D
CAPACITY : 5
NODE_COORD_SECTION
1    836  658 
2    643  630 
3    645  615 
4    488  693 
5    64   41  
6    558  441 
7    601  684 
8    623  449 
9    909  102 
10   766  572 
11   528  596 
12   734  745 
13   851  699 
14   889  430 
15   263  106 
16   697  725 
17   576  361 
18   735  800 
19   504  714 
20   573  286 
21   776  662 
22   921  121 
23   15   466 
24   841  789 
25   122  656 
26   693  169 
27   646  514 
28   75   306 
29   689  375 
30   722  373 
31   650  803 
32   235  934 
33   179  228 
34   189  160 
35   596  683 
36   549  435 
37   806  848 
38   406  312 
39   96   760 
40   333  797 
41   193  796 
42   161  203 
43   5    258 
44   85   173 
45   985  1   
46   510  155 
47   606  332 
48   636  746 
49   446  329 
50   198  191 
51   579  680 
52   48   411 
53   902  365 
54   565  557 
55   102  174 
56   652  404 
57   635  754 
58   461  661 
59   733  408 
60   684  784 
61   153  925 
62   501  662 
63   52   174 
64   576  891 
65   660  588 
66   670  727 
67   390  992 
68   200  774 
69   490  392 
70   555  612 
71   861  383 
72   659  355 
73   601  456 
74   824  776 
75   652  417 
76   35   54  
77   94   197 
78   680  721 
79   651  463 
80   569  195 
81   633  668 
82   818  535 
83   601  349 
84   182  247 
85   566  687 
86   889  953 
87   967  868 
88   537  608 
89   695  149 
90   465  854 
91   543  736 
92   284  804 
93   664  391 
94   460  889 
95   993  609 
96   18   903 
97   328  638 
98   409  750 
99   604  283 
100  22   230 
101  406  853 
DEMAND_SECTION
1    0   
2    1   
3    1   
4    1   
5    1   
6    1   
7    1   
8    1   
9    1   
10   1   
11   1   
12   1   
13   1   
14   1   
15   1   
16   1   
17   1   
18   1   
19   1   
20   1   
21   1   
22   1   
23   1   
24   1   
25   1   
26   1   
27   1   
28   1   
29   1   
30   1   
31   1   
32   1   
33   1   
34   1   
35   1   
36   1   
37   1   
38   1   
39   1   
40   1   
41   1   
42   1   
43   1   
44   1   
45   1   
46   1   
47   1   
48   1   
49   1   
50   1   
51   1   
52   1   
53   1   
54   1   
55   1   
56   1   
57   1   
58   1   
59   1   
60   1   
61   1   
62   1   
63   1   
64   1   
65   1   
66   1   
67   1   
68   1   
69   1   
70   1   
71   1   
72   1   
73   1   
74   1   
75   1   
76   1   
77   1   
78   1   
79   1   
80   1   
81   1   
82   1   
83   1   
84   1   
85   1   
86   1   
87   1   
88   1   
89   1   
90   1   
91   1   
92   1   
93   1   
94   1   
95   1   
96   1   
97   1   
98   1   
99   1   
100  1   
101  1   
DEPOT_SECTION
1
-1
EOF
