data/CVRPLIB/Vrp-Set-XML100/solutions/XML100_1312_11.sol
Route #1: 20 1 2 64 9
Route #2: 39 91 40 67 96
Route #3: 90 18 3 57 61
Route #4: 46 19 45 79 98
Route #5: 14 4 75 43 54
Route #6: 58 29 28 71 92
Route #7: 21 8 44 88 25
Route #8: 63 93 89 100 97
Route #9: 49 33 41 32 83
Route #10: 86 85 36 23 73
Route #11: 81 70 52 13 94
Route #12: 6 34 84 50 80
Route #13: 38 95 60 31 66
Route #14: 69 87 10 53 26
Route #15: 27 42 99 62 76
Route #16: 47 56 30 59 17
Route #17: 82 16 68 35 5
Route #18: 12 11 15 65 77
Route #19: 24 22 51 37 48
Route #20: 78 7 72 55 74
Cost 22022
